n=20;
t=24;
profit=[6 3 10 6 1 6 1 2 8 6 6 3 3 3 10 8 2 6 9 6];
length=[4 1 1 4 1 3 3 2 5 1 1 1 1 1 3 2 1 2 4 5];
min_deliver=[13 4 2 1 7 1 3 3 6 2 1 1 14 10 9 9 2 2 1 19];
max_deliver=[21 16 3 11 9 8 6 21 11 20 5 4 15 14 19 16 14 3 13 19];
surface=[1 4 3 4 4 1 5 2 2 5 3 1 5 5 1 5 4 2 1 1];
surface_capacity=21;
